(declare-const x0 Bool)
(declare-const x1 Bool)
(declare-const x2 Bool)
(declare-const x3 Bool)
(declare-const x4 Bool)
(declare-const x5 Bool)
(declare-const x6 Bool)
(declare-const x7 Bool)
(declare-const x8 Bool)
(declare-const x9 Bool)
(declare-const x10 Bool)
(declare-const x11 Bool)
(declare-const x12 Bool)
(declare-const x13 Bool)
(declare-const x14 Bool)
(declare-const x15 Bool)
(declare-const x16 Bool)
(declare-const x17 Bool)
(declare-const x18 Bool)
(declare-const x19 Bool)
(declare-const x20 Bool)
(declare-const x21 Bool)
(declare-const x22 Bool)
(declare-const x23 Bool)
(declare-const x24 Bool)
(declare-const x25 Bool)
(declare-const x26 Bool)
(declare-const x27 Bool)
(declare-const x28 Bool)
(declare-const x29 Bool)
(declare-const x30 Bool)
(declare-const x31 Bool)
(declare-const x32 Bool)
(declare-const x33 Bool)
(declare-const x34 Bool)
(declare-const x35 Bool)
(declare-const x36 Bool)
(declare-const x37 Bool)
(declare-const x38 Bool)
(declare-const x39 Bool)
(declare-const x40 Bool)
(assert (= (and (or false (or x35 x17)) x22) (and (= (and false x20) (= false x38)) false)))
(assert (or x0 (or (= x3 x11) (and (or true true) true))))
(assert (= (and x28 x1) (or (and (= true x39) (and x34 x10)) (and (= x35 true) (and x17 x12)))))
(assert (and false x12))
(assert (and (= x22 false) false))
(assert (= (= true (or true false)) (= true x21)))
(assert (or (= (or (or (or (= false (= false false)) (= false false)) (and (and false x3) (or true x31))) (and (= true true) (or true x10))) (= true x7)) (or (or x0 false) true)))
(assert (and (or false x38) true))
(assert (= (= (and true x21) (= x39 x40)) (= (and (or true false) (or x31 x15)) x22)))
(assert (= (or (and x31 false) (or true x38)) (and x22 x38)))
(check-sat)
